CMD:
./solvers/bin/cadical --plain --no-reduce -t 1600 ./data/cnfs//eijks208c/eijks208c.99.cnf

c --- [ banner ] -------------------------------------------------------------
c 
c CaDiCaL SAT Solver
c Copyright (c) 2016-2024
c A. Biere, M. Fleury, N. Froleyks, K. Fazekas, F. Pollitt, T. Faller
c JKU Linz, University of Freiburg, TU Wien
c 
c Version 2.1.3 5296d3d2a9bf48c154ab2acb5e44625776d821bf
c g++ (Gentoo 12.3.1_p20230526 p2) 12.3.1 20230526 -Wall -Wextra -O3 -DNDEBUG
c Sat Aug 9 07:26:21 PDT 2025 Linux cedar2.int.cedar.computecanada.ca 5.14.0-362.24.2.el9_3.x86_64 x86_64
c 
c --- [ limit ] --------------------------------------------------------------
c 
c setting time limit to 1600 seconds real time (due to '-t 1600')
c 
c --- [ parsing input ] ------------------------------------------------------
c 
c reading DIMACS file from './data/cnfs//eijks208c/eijks208c.99.cnf'
c opening file to read './data/cnfs//eijks208c/eijks208c.99.cnf'
c found 'p cnf 15923 44423' header
c parsed 44423 clauses in 0.01 seconds process time
c 
c --- [ options ] ------------------------------------------------------------
c 
c   --compact=false                (different from default 'true')
c   --decompose=false              (different from default 'true')
c   --deduplicate=false            (different from default 'true')
c   --elim=false                   (different from default 'true')
c   --probe=false                  (different from default 'true')
c   --reduce=false                 (different from default 'true')
c   --subsume=false                (different from default 'true')
c   --ternary=false                (different from default 'true')
c   --transred=false               (different from default 'true')
c   --vivify=false                 (different from default 'true')
c 
c --- [ solving ] ------------------------------------------------------------
c 
c time measured in process time since initialization
c 
c  seconds  reductions  redundant  irredundant
c         MB    restarts       trail      variables
c          level   conflicts       glue        remaining
c 
c *  0.01 11  0 0   0    0    0  0% 0 43349 14893 94%
c {  0.01 11  0 0   0    0    0  0% 0 43349 14893 94%
c i  0.02 11 455 0   6  225  224 51% 1 43349 14873 93%
c i  0.02 11 455 0   7  229  227 52% 1 43349 14862 93%
c i  0.04 11 239 0  80  509  489 45% 2 43349 14823 93%
c i  0.04 11 238 0  81  512  491 45% 2 43349 14792 93%
c i  0.04 11 237 0  82  515  493 45% 2 43349 14771 93%
c i  0.04 11 226 0  93  557  532 45% 2 43349 14727 92%
c i  0.06 11 155 0 193  929  889 40% 3 43349 14718 92%
c }  0.07 11 150 0 202 1000  959 42% 3 43349 14718 92%
c [  0.07 11  0 0 202 1000  959  0% 0 43349 14718 92%
c O  0.07 11 483 0 202 1005  964 72% 17 43349 14718 92%
c ]  0.11 12 489 0 203 3000 2802 83% 4 43349 14718 92%
c {  0.11 12 150 0 203 3000 2802 42% 3 43349 14718 92%
c F  0.12 12 149 0 205 3006 2808 42% 3 43349 14718 92%
c i  0.16 12 104 0 376 3889 3635 40% 3 43349 14697 92%
c i  0.16 12 104 0 376 3897 3642 40% 3 43349 14664 92%
c i  0.16 12 104 0 376 4014 3745 43% 3 43349 14579 92%
c i  0.20 12 87 0 525 4974 4603 41% 3 43349 14571 92%
c i  0.22 12 82 0 569 5406 4998 41% 3 43349 14539 91%
c 
c  seconds  reductions  redundant  irredundant
c         MB    restarts       trail      variables
c          level   conflicts       glue        remaining
c 
c i  0.22 12 82 0 569 5418 5007 41% 3 43349 14508 91%
c i  0.23 12 80 0 597 5643 5217 41% 3 43349 14502 91%
c i  0.23 12 79 0 599 5766 5318 41% 3 43349 14493 91%
c #  0.24 12 76 0 630 6007 5533 41% 3 43349 14493 91%
c i  0.25 12 75 0 637 6125 5631 40% 3 43349 14488 91%
c i  0.25 12 75 0 637 6126 5631 40% 3 43349 14471 91%
c i  0.25 12 75 0 637 6148 5652 40% 3 43349 14455 91%
c i  0.25 12 75 0 637 6167 5665 40% 3 43349 14454 91%
c i  0.25 12 75 0 637 6168 5665 40% 3 43349 14425 91%
c i  0.25 12 74 0 637 6216 5701 40% 3 43349 14415 91%
c i  0.25 12 73 0 637 6269 5747 40% 3 43349 14413 91%
c i  0.25 12 73 0 637 6282 5755 40% 3 43349 14378 90%
c i  0.27 12 72 0 720 6735 6167 40% 3 43349 14373 90%
c }  0.29 12 71 0 773 7000 6414 40% 3 43349 14353 90%
c [  0.29 12 489 0 773 7000 6414 83% 4 43349 14353 90%
c i  0.37 13 281 0 775 9705 8840 81% 6 43349 14343 90%
c I  0.38 13 269 0 775 10008 9118 80% 6 43349 14343 90%
c i  0.38 13 267 0 775 10041 9144 80% 6 43349 14307 90%
c i  0.53 14 171 0 778 14761 13495 68% 6 43349 14281 90%
c ]  0.54 14 167 0 778 15000 13675 67% 6 43349 14281 90%
c 
c  seconds  reductions    redundant  irredundant
c         MB    restarts         trail      variables
c          level    conflicts        glue        remaining
c 
c {  0.54 14 71 0 778 15000 13675 40% 3 43349 14281 90%
c B  0.54 14 71 0 778 15009 13684 40% 3 43349 14281 90%
c i  0.60 14 69 0 941 15665 14297 41% 3 43349 14235 89%
c i  0.66 14 68 0 1075 16436 15021 42% 4 43349 14232 89%
... skipped 70 lines ...
c 
c B  2.03 17 125 0 3153 36013 32703 63% 6 38037 13290 83%
c i  2.19 18 113 0 3154 38461 34988 62% 6 38037 13289 83%
c i  2.28 18 107 0 3156 39793 36245 61% 6 38037 13221 83%
c i  2.35 18 102 0 3156 41058 37426 60% 6 38037 13211 83%
c i  2.35 18 102 0 3156 41060 37427 60% 6 38037 13199 83%
c W  2.68 23 87 0 3157 45015 40684 57% 6 36336 13197 83%
c i  2.69 23 87 0 3157 45038 40705 57% 6 36336 13145 83%
c i  2.69 23 87 0 3157 45040 40705 57% 6 36336 13042 82%
c i  2.96 23 80 0 3158 47913 43102 56% 7 36336 13036 82%
c O  3.65 23 65 0 3159 55016 48033 52% 8 36336 13036 82%
c i  4.39 23 55 0 3164 61115 51470 50% 8 36336 13035 82%
c ]  4.64 23 53 0 3165 63003 52596 50% 8 36336 13035 82%
c {  4.64 23 49 0 3165 63003 52596 44% 4 36336 13035 82%
c i  4.74 23 48 0 3294 63527 53048 44% 4 36336 13019 82%
c i  4.77 23 48 0 3345 63727 53218 44% 4 36336 13011 82%
c i  4.99 23 47 0 3636 64897 54272 44% 4 36336 13010 82%
c i  4.99 23 46 0 3637 64936 54304 44% 4 36336 12999 82%
c B  5.24 23 45 0 3911 66017 55253 43% 4 36336 12998 82%
c i  5.39 23 44 0 4115 66794 55982 43% 5 36336 12991 82%
c i  5.41 23 44 0 4141 66928 56098 43% 5 36336 12985 82%
c 
c  seconds  reductions     redundant  irredundant
c         MB    restarts          trail      variables
c          level     conflicts        glue        remaining
c 
c i  5.44 23 44 0 4176 67120 56263 43% 5 36336 12984 82%
c i  5.44 23 44 0 4177 67121 56263 43% 5 36336 12983 82%
c i  5.44 23 44 0 4177 67123 56263 43% 5 36336 12972 81%
c i  5.49 23 43 0 4243 67382 56499 43% 5 36336 12971 81%
c i  5.66 23 42 0 4484 68350 57366 43% 5 36336 12970 81%
c i  5.66 23 42 0 4486 68356 57369 43% 5 36336 12954 81%
c i  5.66 23 42 0 4488 68367 57375 43% 5 36336 12935 81%
c i  5.77 23 42 0 4645 68993 57935 43% 5 36336 12929 81%
c i  5.77 23 42 0 4646 68994 57935 43% 5 36336 12922 81%
c i  6.18 24 39 0 5205 71599 60199 42% 5 36336 12917 81%
c i  6.39 24 37 0 5453 73071 61381 41% 5 36336 12895 81%
c i  6.40 24 37 0 5468 73213 61479 41% 5 36336 12850 81%
c i  6.41 24 37 0 5468 73256 61504 41% 5 36336 12727 80%
c i  6.43 24 37 0 5468 73383 61597 41% 5 36336 12688 80%
c i  6.43 24 37 0 5468 73437 61623 41% 5 36336 11996 75%
c i  6.43 24 37 0 5468 73438 61623 41% 5 36336 11833 74%
c i  6.43 24 37 0 5468 73439 61623 41% 5 36336 11264 71%
c i  6.43 24 37 0 5468 73441 61624 41% 5 36336 8999 57%
c }  6.43 24 37 0 5468 73443 61624 41% 5 36336 8713 55%
c 0  6.43 24 37 0 5468 73443 61624 41% 5 36336 8713 55%
c 
c --- [ result ] -------------------------------------------------------------
c 
s UNSATISFIABLE
c 
c --- [ run-time profiling ] -------------------------------------------------
c 
c process time taken by individual solving procedures
c (percentage relative to process time for solving)
c 
c         6.43  100.00% search
c         3.25   50.60% unstable
c         3.12   48.62% stable
c         0.05    0.74% walk
c         0.01    0.11% parse
c         0.00    0.05% lucky
c         0.00    0.00% simplify
c   =================================
c         6.43   99.88% solve
c 
c last line shows process time for solving
c (percentage relative to total process time)
c 
c --- [ statistics ] ---------------------------------------------------------
c 
c chronological:             19994        27.22 %  of conflicts
c conflicts:                 73443     11428.02    per second
c decisions:                283770     44155.72    per second
c fixed:                      7210        45.28 %  of all variables
c learned:                   71572        97.45 %  per conflict
c learned_lits:            2735703       100.00 %  learned literals
c minimized:                     0         0.00 %  learned literals
c shrunken:                1035021        37.83 %  learned literals
c minishrunken:             509683        18.63 %  learned literals
c otfs:                        860         1.17 %  of conflict
c propagations:           61600631         9.59 M  per second
c rephased:                     11      6676.64    interval
c restarts:                   5468        13.43    interval
c stabilizing:                   3        57.17 %  of conflicts
c subsumed:                   9217         8.03 %  of all clauses
c strengthened:                823         0.72 %  of all clauses
c walked:                        2     36721.50    interval
c 
c seconds are measured in process time for solving
c 
c --- [ resources ] ----------------------------------------------------------
c 
c total process time since initialization:         6.43    seconds
c total real time since initialization:            6.46    seconds
c maximum resident set size of process:           35.65    MB
c 
c --- [ shutting down ] ------------------------------------------------------
c 
c exit 20
